certificates/rado_a12_c160_N32.cnf
c Rad2 upper bound instance: x1 + 12*x2 - x3 = 160, interval [1,32]
p cnf 32 168
1 9 14 0
-1 -9 -14 0
1 15 21 0
-1 -15 -21 0
2 10 14 0
-2 -10 -14 0
2 15 22 0
-2 -15 -22 0
3 11 14 0
-3 -11 -14 0
3 15 23 0
-3 -15 -23 0
4 12 14 0
-4 -12 -14 0
4 15 24 0
-4 -15 -24 0
1 5 13 0
-1 -5 -13 0
5 13 14 0
-5 -13 -14 0
5 15 25 0
-5 -15 -25 0
2 6 13 0
-2 -6 -13 0
6 14 0
-6 -14 0
6 15 26 0
-6 -15 -26 0
3 7 13 0
-3 -7 -13 0
7 14 15 0
-7 -14 -15 0
7 15 27 0
-7 -15 -27 0
4 8 13 0
-4 -8 -13 0
8 14 16 0
-8 -14 -16 0
8 15 28 0
-8 -15 -28 0
5 9 13 0
-5 -9 -13 0
9 14 17 0
-9 -14 -17 0
9 15 29 0
-9 -15 -29 0
6 10 13 0
-6 -10 -13 0
10 14 18 0
-10 -14 -18 0
10 15 30 0
-10 -15 -30 0
7 11 13 0
-7 -11 -13 0
11 14 19 0
-11 -14 -19 0
11 15 31 0
-11 -15 -31 0
8 12 13 0
-8 -12 -13 0
12 14 20 0
-12 -14 -20 0
12 15 32 0
-12 -15 -32 0
9 13 0
-9 -13 0
13 14 21 0
-13 -14 -21 0
10 13 14 0
-10 -13 -14 0
14 22 0
-14 -22 0
11 13 15 0
-11 -13 -15 0
14 15 23 0
-14 -15 -23 0
12 13 16 0
-12 -13 -16 0
14 16 24 0
-14 -16 -24 0
1 12 17 0
-1 -12 -17 0
13 17 0
-13 -17 0
14 17 25 0
-14 -17 -25 0
2 12 18 0
-2 -12 -18 0
13 14 18 0
-13 -14 -18 0
14 18 26 0
-14 -18 -26 0
3 12 19 0
-3 -12 -19 0
13 15 19 0
-13 -15 -19 0
14 19 27 0
-14 -19 -27 0
4 12 20 0
-4 -12 -20 0
13 16 20 0
-13 -16 -20 0
14 20 28 0
-14 -20 -28 0
5 12 21 0
-5 -12 -21 0
13 17 21 0
-13 -17 -21 0
14 21 29 0
-14 -21 -29 0
6 12 22 0
-6 -12 -22 0
13 18 22 0
-13 -18 -22 0
14 22 30 0
-14 -22 -30 0
7 12 23 0
-7 -12 -23 0
13 19 23 0
-13 -19 -23 0
14 23 31 0
-14 -23 -31 0
8 12 24 0
-8 -12 -24 0
13 20 24 0
-13 -20 -24 0
14 24 32 0
-14 -24 -32 0
9 12 25 0
-9 -12 -25 0
13 21 25 0
-13 -21 -25 0
10 12 26 0
-10 -12 -26 0
13 22 26 0
-13 -22 -26 0
11 12 27 0
-11 -12 -27 0
13 23 27 0
-13 -23 -27 0
12 28 0
-12 -28 0
13 24 28 0
-13 -24 -28 0
1 11 29 0
-1 -11 -29 0
12 13 29 0
-12 -13 -29 0
13 25 29 0
-13 -25 -29 0
2 11 30 0
-2 -11 -30 0
12 14 30 0
-12 -14 -30 0
13 26 30 0
-13 -26 -30 0
3 11 31 0
-3 -11 -31 0
12 15 31 0
-12 -15 -31 0
13 27 31 0
-13 -27 -31 0
4 11 32 0
-4 -11 -32 0
12 16 32 0
-12 -16 -32 0
13 28 32 0
-13 -28 -32 0
