certificates/rado_a12_c160_N32.drat
-28 -32 0
14 -32 0
-12 -32 0
d -15 -12 -32 0
-32 0
-14 0
6 0
22 0
24 0
-12 0
28 0
30 0
16 0
15 0
4 0
20 0
-13 0
-8 0
-10 0
-26 0
-2 0
0
